(set-logic QF_S)
(declare-fun var0 () String)
(declare-fun var1 () String)
(declare-fun var2 () String)
(declare-fun var3 () String)
(declare-fun var4 () String)
(declare-fun var5 () String)
(declare-fun var6 () String)
(declare-fun var7 () String)
(declare-fun var8 () String)
(declare-fun var9 () String)
(declare-fun var10 () String)
(declare-fun var11 () String)
(declare-fun var12 () String)
(declare-fun var13 () String)
(declare-fun var14 () String)
(declare-fun var15 () String)
(declare-fun var16 () String)
(declare-fun var17 () String)
(declare-fun var18 () String)
(declare-fun var19 () String)
(declare-fun var20 () String)
(declare-fun var21 () String)
(declare-fun var22 () String)
(declare-fun var23 () String)
(declare-fun var24 () String)
(declare-fun var25 () String)
(declare-fun var26 () String)
(declare-fun var27 () String)
(declare-fun var28 () String)
(declare-fun var29 () String)
(declare-fun var30 () String)
(declare-fun var31 () String)
(declare-fun var32 () String)
(declare-fun var33 () String)
(declare-fun var34 () String)
(declare-fun var35 () String)
(declare-fun var36 () String)
(declare-fun var37 () String)
(declare-fun var38 () String)
(declare-fun var39 () String)
(declare-fun var40 () String)
(declare-fun var41 () String)
(declare-fun var42 () String)
(declare-fun var43 () String)
(declare-fun var44 () String)
(declare-fun var45 () String)
(declare-fun var46 () String)
(declare-fun var47 () String)
(declare-fun var48 () String)
(declare-fun var49 () String)
(declare-fun var50 () String)
(declare-fun var51 () String)
(declare-fun var52 () String)
(declare-fun var53 () String)
(declare-fun var54 () String)
(declare-fun var55 () String)
(declare-fun var56 () String)
(declare-fun var57 () String)
(declare-fun var58 () String)
(declare-fun var59 () String)
(declare-fun var60 () String)
(assert (= var0 (Concat var1 var2)))
(assert (= var2 (Concat var3 var4)))
(assert (= var4 (Concat var5 var6)))
(assert (= var6 (Concat var7 var8)))
(assert (= var8 (Concat var9 var10)))
(assert (= var10 (Concat var11 var12)))
(assert (= var12 (Concat var13 var14)))
(assert (= var14 (Concat var15 var16)))
(assert (= var16 (Concat var17 var18)))
(assert (= var18 (Concat var19 var20)))
(assert (= var20 (Concat var21 var22)))
(assert (= var22 (Concat var23 var24)))
(assert (= var24 (Concat var25 var26)))
(assert (= var26 (Concat var27 var28)))
(assert (= var28 (Concat var29 var30)))
(assert (= var30 (Concat var31 var32)))
(assert (= var32 (Concat var33 var34)))
(assert (= var34 (Concat var35 var36)))
(assert (= var36 (Concat var37 var38)))
(assert (= var38 (Concat var39 var40)))
(assert (= var40 (Concat var41 var42)))
(assert (= var42 (Concat var43 var44)))
(assert (= var44 (Concat var45 var46)))
(assert (= var46 (Concat var47 var48)))
(assert (= var48 (Concat var49 var50)))
(assert (= var50 (Concat var51 var52)))
(assert (= var52 (Concat var53 var54)))
(assert (= var54 (Concat var55 var56)))
(assert (= var56 (Concat var57 var58)))
(assert (= var58 (Concat var59 var60)))
(assert (= var0 "solution"))
(assert (= "U" (CharAt var41 588)))
(assert (= "l" (CharAt var46 676)))
(assert (= "'" (CharAt var26 520)))
(assert (= "z" (CharAt var1 925)))
(assert (= "^" (CharAt var39 195)))
(assert (= "Z" (CharAt var53 800)))
(assert (= "1" (CharAt var17 556)))
(assert (= "z" (CharAt var8 539)))
(assert (= "f" (CharAt var25 250)))
(assert (= "b" (CharAt var1 807)))
(assert (= "e" (CharAt var26 816)))
(assert (= "M" (CharAt var43 653)))
(assert (= "W" (CharAt var54 542)))
(assert (= "H" (CharAt var45 262)))
(assert (= "?" (CharAt var20 839)))
(assert (= "z" (CharAt var57 993)))
(assert (= "B" (CharAt var31 403)))
(assert (= "k" (CharAt var27 982)))
(assert (= "x" (CharAt var29 116)))
(assert (= "V" (CharAt var2 858)))
(assert (= "P" (CharAt var22 392)))
(assert (= "3" (CharAt var29 514)))
(assert (= "1" (CharAt var5 98)))
(assert (= "W" (CharAt var57 27)))
(assert (= "~" (CharAt var38 778)))
(assert (= "&" (CharAt var40 605)))
(assert (= "," (CharAt var27 994)))
(assert (= "m" (CharAt var43 605)))
(assert (= "J" (CharAt var57 118)))
(assert (= "D" (CharAt var24 369)))
(assert (= "P" (CharAt var23 380)))
(assert (= "m" (CharAt var43 523)))
(assert (= "_" (CharAt var42 844)))
(assert (= "1" (CharAt var51 587)))
(assert (= "e" (CharAt var50 647)))
(assert (= "s" (CharAt var21 194)))
(assert (= "l" (CharAt var21 231)))
(assert (= "5" (CharAt var14 967)))
(assert (= "l" (CharAt var12 26)))
(assert (= "a" (CharAt var6 199)))
(assert (= "D" (CharAt var40 523)))
(assert (= "!" (CharAt var20 7)))
(assert (= "X" (CharAt var16 77)))
(assert (= "t" (CharAt var37 612)))
(assert (= "(" (CharAt var30 509)))
(assert (= "1" (CharAt var40 542)))
(assert (= "e" (CharAt var4 933)))
(assert (= "k" (CharAt var44 352)))
(assert (= "p" (CharAt var34 125)))
(assert (= "0" (CharAt var59 238)))
(assert (= "f" (CharAt var28 718)))
(assert (= "Q" (CharAt var40 696)))
(assert (= "S" (CharAt var33 531)))
(assert (= "$" (CharAt var26 734)))
(assert (= "k" (CharAt var2 535)))
(assert (= "!" (CharAt var13 608)))
(assert (= "3" (CharAt var38 498)))
(assert (= "q" (CharAt var44 953)))
(assert (= "~" (CharAt var31 156)))
(assert (= "}" (CharAt var2 490)))
(assert (= "Y" (CharAt var54 819)))
(assert (= "Z" (CharAt var32 201)))
(assert (= "H" (CharAt var49 473)))
(assert (= "\"" (CharAt var29 89)))
(assert (= "8" (CharAt var56 256)))
(assert (= "I" (CharAt var20 90)))
(assert (= "L" (CharAt var14 632)))
(assert (= "l" (CharAt var58 836)))
(assert (= "}" (CharAt var45 142)))
(assert (= "|" (CharAt var14 140)))
(assert (= "1" (CharAt var41 179)))
(assert (= "y" (CharAt var15 640)))
(assert (= "*" (CharAt var41 392)))
(assert (= "j" (CharAt var33 726)))
(assert (= "g" (CharAt var13 470)))
(assert (= "&" (CharAt var24 538)))
(assert (= "g" (CharAt var30 577)))
(assert (= "e" (CharAt var17 662)))
(assert (= "\"" (CharAt var0 806)))
(assert (= "Z" (CharAt var55 168)))
(assert (= "V" (CharAt var43 659)))
(assert (= "q" (CharAt var22 530)))
(assert (= "t" (CharAt var52 509)))
(assert (= "{" (CharAt var10 769)))
(assert (= "S" (CharAt var14 14)))
(assert (= "B" (CharAt var18 490)))
(assert (= "w" (CharAt var33 898)))
(assert (= "a" (CharAt var2 452)))
(assert (= "," (CharAt var2 774)))
(assert (= "@" (CharAt var19 703)))
(assert (= "\\" (CharAt var5 300)))
(assert (= "{" (CharAt var56 767)))
(assert (= "%" (CharAt var10 982)))
(assert (= "k" (CharAt var56 321)))
(assert (= "L" (CharAt var39 622)))
(assert (= "|" (CharAt var55 719)))
(assert (= ";" (CharAt var14 275)))
(assert (= "\"" (CharAt var12 181)))
(assert (= "(" (CharAt var15 422)))
(assert (= "L" (CharAt var20 551)))
(assert (= "h" (CharAt var32 482)))
(assert (= "w" (CharAt var15 408)))
(assert (= "N" (CharAt var40 400)))
(assert (= "'" (CharAt var15 241)))
(assert (= "E" (CharAt var41 122)))
(assert (= "<" (CharAt var48 455)))
(assert (= "@" (CharAt var0 933)))
(assert (= "H" (CharAt var9 136)))
(assert (= "k" (CharAt var1 974)))
(assert (= "m" (CharAt var56 17)))
(assert (= "V" (CharAt var43 724)))
(assert (= "C" (CharAt var18 954)))
(assert (= "z" (CharAt var35 594)))
(assert (= "_" (CharAt var28 304)))
(assert (= "a" (CharAt var49 595)))
(assert (= "|" (CharAt var15 726)))
(assert (= "b" (CharAt var16 806)))
(assert (= "]" (CharAt var44 415)))
(assert (= "|" (CharAt var59 725)))
(assert (= "q" (CharAt var30 607)))
(assert (= ")" (CharAt var24 215)))
(assert (= ":" (CharAt var60 391)))
(assert (= "}" (CharAt var29 570)))
(assert (= "@" (CharAt var38 876)))
(assert (= "7" (CharAt var8 745)))
(assert (= "\\" (CharAt var14 336)))
(assert (= "Z" (CharAt var5 270)))
(assert (= "B" (CharAt var14 494)))
(assert (= "~" (CharAt var35 493)))
(assert (= "h" (CharAt var38 216)))
(assert (= "i" (CharAt var53 903)))
(assert (= "w" (CharAt var29 596)))
(assert (= ";" (CharAt var45 56)))
(assert (= "?" (CharAt var11 791)))
(assert (= "b" (CharAt var60 777)))
(assert (= "R" (CharAt var50 679)))
(assert (= "o" (CharAt var44 97)))
(assert (= "_" (CharAt var18 829)))
(assert (= "[" (CharAt var38 882)))
(assert (= "5" (CharAt var47 432)))
(assert (= "x" (CharAt var49 728)))
(assert (= "N" (CharAt var12 208)))
(assert (= "x" (CharAt var14 464)))
(assert (= "O" (CharAt var43 291)))
(assert (= "h" (CharAt var16 301)))
(assert (= "T" (CharAt var20 320)))
(assert (= "y" (CharAt var29 634)))
(assert (= "&" (CharAt var6 440)))
(assert (= "}" (CharAt var54 634)))
(assert (= "R" (CharAt var36 187)))
(assert (= "@" (CharAt var39 624)))
(assert (= "]" (CharAt var24 563)))
(assert (= "[" (CharAt var40 122)))
(assert (= "[" (CharAt var8 870)))
(assert (= "5" (CharAt var37 179)))
(assert (= "5" (CharAt var22 173)))
(assert (= "$" (CharAt var26 443)))
(assert (= "[" (CharAt var37 373)))
(assert (= "9" (CharAt var12 656)))
(assert (= "6" (CharAt var9 842)))
(assert (= "H" (CharAt var22 285)))
(assert (= "k" (CharAt var32 757)))
(assert (= "P" (CharAt var4 423)))
(assert (= "T" (CharAt var33 390)))
(assert (= "." (CharAt var56 853)))
(assert (= "T" (CharAt var39 620)))
(assert (= "V" (CharAt var58 999)))
(assert (= "=" (CharAt var5 381)))
(assert (= "m" (CharAt var26 373)))
(assert (= "p" (CharAt var47 203)))
(assert (= "S" (CharAt var27 626)))
(assert (= "i" (CharAt var24 60)))
(assert (= "I" (CharAt var58 300)))
(assert (= "G" (CharAt var7 159)))
(assert (= "|" (CharAt var54 376)))
(assert (= "|" (CharAt var40 493)))
(assert (= "N" (CharAt var7 633)))
(assert (= "R" (CharAt var56 156)))
(assert (= "T" (CharAt var51 768)))
(assert (= "P" (CharAt var37 515)))
(assert (= "W" (CharAt var4 465)))
(assert (= "*" (CharAt var0 607)))
(assert (= ":" (CharAt var0 718)))
(assert (= "v" (CharAt var29 654)))
(assert (= "*" (CharAt var19 521)))
(assert (= "L" (CharAt var20 881)))
(assert (= "y" (CharAt var59 887)))
(assert (= "l" (CharAt var43 995)))
(assert (= "$" (CharAt var3 15)))
(assert (= "u" (CharAt var29 64)))
(assert (= "U" (CharAt var24 438)))
(assert (= "H" (CharAt var29 197)))
(assert (= "," (CharAt var15 728)))
(assert (= "=" (CharAt var5 209)))
(assert (= "K" (CharAt var34 566)))
(assert (= "." (CharAt var27 702)))
(assert (= "g" (CharAt var48 187)))
(assert (= "(" (CharAt var30 953)))
(assert (= "\"" (CharAt var29 406)))
(assert (= ":" (CharAt var2 573)))
(assert (= "u" (CharAt var53 776)))
(assert (= "V" (CharAt var7 176)))
(assert (= "f" (CharAt var32 287)))
(assert (= "5" (CharAt var4 322)))
(assert (= "^" (CharAt var59 373)))
(assert (= "|" (CharAt var50 305)))
(assert (= "9" (CharAt var8 194)))
(assert (= "/" (CharAt var35 28)))
(assert (= "2" (CharAt var30 262)))
(assert (= "$" (CharAt var55 394)))
(assert (= "B" (CharAt var41 237)))
(assert (= "%" (CharAt var6 222)))
(assert (= "A" (CharAt var2 977)))
(assert (= "M" (CharAt var33 266)))
(assert (= "E" (CharAt var53 575)))
(assert (= "^" (CharAt var23 954)))
(assert (= "n" (CharAt var24 694)))
(assert (= "k" (CharAt var35 72)))
(assert (= "/" (CharAt var29 996)))
(assert (= "v" (CharAt var2 132)))
(assert (= "N" (CharAt var1 448)))
(assert (= "%" (CharAt var42 681)))
(assert (= "P" (CharAt var1 948)))
(assert (= "s" (CharAt var46 34)))
(assert (= "E" (CharAt var19 503)))
(assert (= "]" (CharAt var47 98)))
(assert (= "$" (CharAt var36 246)))
(assert (= "Y" (CharAt var19 377)))
(assert (= "3" (CharAt var0 561)))
(assert (= "i" (CharAt var19 437)))
(assert (= "$" (CharAt var60 115)))
(assert (= "\\" (CharAt var1 123)))
(assert (= "6" (CharAt var55 524)))
(assert (= "O" (CharAt var16 460)))
(assert (= "E" (CharAt var12 738)))
(assert (= "Q" (CharAt var33 825)))
(assert (= "h" (CharAt var9 497)))
(assert (= "5" (CharAt var33 296)))
(assert (= "b" (CharAt var16 226)))
(assert (= "Y" (CharAt var32 589)))
(assert (= "E" (CharAt var41 36)))
(assert (= "j" (CharAt var18 477)))
(assert (= "4" (CharAt var13 211)))
(assert (= "-" (CharAt var16 817)))
(assert (= "l" (CharAt var50 987)))
(assert (= "3" (CharAt var54 513)))
(assert (= "h" (CharAt var45 669)))
(assert (= "a" (CharAt var4 595)))
(assert (= "n" (CharAt var46 25)))
(assert (= "i" (CharAt var20 270)))
(assert (= "h" (CharAt var53 407)))
(assert (= "W" (CharAt var59 125)))
(assert (= "4" (CharAt var17 728)))
(assert (= "+" (CharAt var19 189)))
(assert (= "l" (CharAt var55 241)))
(assert (= "2" (CharAt var26 568)))
(assert (= "g" (CharAt var24 85)))
(assert (= "t" (CharAt var42 786)))
(assert (= "l" (CharAt var46 290)))
(assert (= "]" (CharAt var48 773)))
(assert (= "C" (CharAt var11 74)))
(assert (= "n" (CharAt var49 320)))
(assert (= "O" (CharAt var34 66)))
(assert (= "C" (CharAt var41 34)))
(assert (= "!" (CharAt var8 390)))
(assert (= ")" (CharAt var39 138)))
(assert (= "C" (CharAt var8 950)))
(assert (= ">" (CharAt var38 450)))
(assert (= "=" (CharAt var51 289)))
(assert (= "0" (CharAt var60 270)))
(assert (= "|" (CharAt var12 373)))
(assert (= "d" (CharAt var57 538)))
(assert (= ";" (CharAt var35 947)))
(assert (= "i" (CharAt var47 853)))
(assert (= "w" (CharAt var54 724)))
(assert (= "]" (CharAt var4 935)))
(assert (= "2" (CharAt var0 979)))
(assert (= "p" (CharAt var59 420)))
(assert (= "|" (CharAt var13 454)))
(assert (= ">" (CharAt var16 761)))
(assert (= ">" (CharAt var48 93)))
(assert (= "N" (CharAt var44 601)))
(assert (= "$" (CharAt var24 118)))
(assert (= "'" (CharAt var17 175)))
(assert (= "v" (CharAt var46 10)))
(assert (= "[" (CharAt var18 243)))
(assert (= "." (CharAt var41 81)))
(assert (= "f" (CharAt var15 988)))
(assert (= "d" (CharAt var1 871)))
(assert (= "s" (CharAt var5 396)))
(assert (= "n" (CharAt var43 925)))
(assert (= "j" (CharAt var0 537)))
(assert (= "'" (CharAt var20 606)))
(assert (= "V" (CharAt var19 372)))
(assert (= "`" (CharAt var11 112)))
(assert (= "(" (CharAt var59 274)))
(assert (= "q" (CharAt var60 39)))
(assert (= "?" (CharAt var11 684)))
(assert (= "#" (CharAt var3 500)))
(assert (= "{" (CharAt var48 198)))
(assert (= "." (CharAt var55 471)))
(assert (= "/" (CharAt var60 975)))
(assert (= "f" (CharAt var38 898)))
(assert (= "n" (CharAt var25 579)))
(assert (= "h" (CharAt var14 738)))
(assert (= "~" (CharAt var24 997)))
(assert (= "," (CharAt var55 161)))
(assert (= "M" (CharAt var14 69)))
(assert (= "`" (CharAt var43 543)))
(assert (= "&" (CharAt var43 86)))
(assert (= "k" (CharAt var36 855)))
(assert (= "7" (CharAt var16 471)))
(assert (= "|" (CharAt var24 667)))
(assert (= "N" (CharAt var60 200)))
(assert (= "6" (CharAt var28 86)))
(assert (= "G" (CharAt var33 50)))
(assert (= "$" (CharAt var34 272)))
(assert (= "\\" (CharAt var43 337)))
(assert (= "z" (CharAt var39 583)))
(assert (= "4" (CharAt var50 703)))
(assert (= "H" (CharAt var30 899)))
(assert (= "=" (CharAt var13 5)))
(assert (= "l" (CharAt var42 566)))
(assert (= "2" (CharAt var11 760)))
(assert (= "o" (CharAt var6 84)))
(assert (= "r" (CharAt var3 91)))
(assert (= "0" (CharAt var21 738)))
(assert (= "e" (CharAt var59 397)))
(assert (= "0" (CharAt var4 212)))
(assert (= "F" (CharAt var21 440)))
(assert (= ":" (CharAt var36 869)))
(assert (= "Z" (CharAt var29 664)))
(assert (= "9" (CharAt var49 395)))
(assert (= "$" (CharAt var3 776)))
(assert (= "~" (CharAt var26 639)))
(assert (= "a" (CharAt var7 33)))
(assert (= "B" (CharAt var29 779)))
(assert (= "o" (CharAt var17 109)))
(assert (= "s" (CharAt var28 188)))
(assert (= "}" (CharAt var0 643)))
(assert (= "f" (CharAt var40 309)))
(assert (= "x" (CharAt var57 532)))
(assert (= "@" (CharAt var52 758)))
(assert (= "4" (CharAt var30 559)))
(assert (= "S" (CharAt var21 557)))
(assert (= "D" (CharAt var7 569)))
(assert (= "<" (CharAt var2 709)))
(assert (= "N" (CharAt var49 271)))
(assert (= "u" (CharAt var32 260)))
(assert (= "C" (CharAt var60 613)))
(assert (= "7" (CharAt var60 925)))
(assert (= "6" (CharAt var32 861)))
(assert (= "&" (CharAt var2 556)))
(assert (= "h" (CharAt var22 519)))
(assert (= "h" (CharAt var33 578)))
(assert (= "[" (CharAt var41 156)))
(assert (= "A" (CharAt var34 255)))
(assert (= "U" (CharAt var35 237)))
(assert (= "t" (CharAt var24 509)))
(assert (= "S" (CharAt var57 902)))
(assert (= "H" (CharAt var38 237)))
(assert (= "'" (CharAt var19 718)))
(assert (= "r" (CharAt var17 782)))
(assert (= "W" (CharAt var28 770)))
(assert (= "q" (CharAt var54 85)))
(assert (= "a" (CharAt var26 101)))
(assert (= "y" (CharAt var49 553)))
(assert (= "K" (CharAt var20 370)))
(assert (= "%" (CharAt var32 429)))
(assert (= "Y" (CharAt var59 116)))
(assert (= "3" (CharAt var50 11)))
(assert (= "=" (CharAt var26 464)))
(assert (= "x" (CharAt var42 860)))
(assert (= "F" (CharAt var49 615)))
(assert (= "`" (CharAt var12 521)))
(assert (= "F" (CharAt var60 220)))
(assert (= "r" (CharAt var11 309)))
(assert (= "Y" (CharAt var47 962)))
(assert (= "q" (CharAt var48 569)))
(assert (= "@" (CharAt var22 627)))
(assert (= "k" (CharAt var5 556)))
(assert (= "h" (CharAt var0 786)))
(assert (= "a" (CharAt var44 494)))
(assert (= "n" (CharAt var46 382)))
(assert (= "3" (CharAt var14 6)))
(assert (= ">" (CharAt var17 704)))
(assert (= "," (CharAt var50 63)))
(assert (= "J" (CharAt var46 477)))
(assert (= "n" (CharAt var9 262)))
(assert (= "B" (CharAt var54 811)))
(assert (= "h" (CharAt var40 551)))
(assert (= "q" (CharAt var15 544)))
(assert (= "d" (CharAt var54 778)))
(assert (= "$" (CharAt var40 15)))
(assert (= "H" (CharAt var8 406)))
(assert (= "i" (CharAt var46 964)))
(assert (= "s" (CharAt var9 52)))
(assert (= ")" (CharAt var14 641)))
(assert (= "s" (CharAt var30 367)))
(assert (= ")" (CharAt var35 690)))
(assert (= "1" (CharAt var57 988)))
(assert (= "D" (CharAt var37 252)))
(assert (= "2" (CharAt var14 648)))
(assert (= "K" (CharAt var36 898)))
(assert (= "g" (CharAt var19 201)))
(assert (= "`" (CharAt var7 769)))
(assert (= "l" (CharAt var19 509)))
(assert (= "T" (CharAt var4 286)))
(assert (= "t" (CharAt var57 291)))
(assert (= "," (CharAt var52 822)))
(assert (= "L" (CharAt var8 787)))
(assert (= "$" (CharAt var14 768)))
(assert (= "q" (CharAt var3 782)))
(assert (= "l" (CharAt var48 219)))
(assert (= "d" (CharAt var60 612)))
(assert (= "\"" (CharAt var32 123)))
(assert (= "z" (CharAt var52 710)))
(assert (= "x" (CharAt var40 486)))
(assert (= "H" (CharAt var3 365)))
(assert (= "#" (CharAt var30 323)))
(assert (= "0" (CharAt var55 121)))
(assert (= "K" (CharAt var17 42)))
(assert (= "'" (CharAt var31 956)))
(assert (= "K" (CharAt var32 747)))
(assert (= "5" (CharAt var29 606)))
(assert (= "J" (CharAt var48 134)))
(assert (= "." (CharAt var52 309)))
(assert (= "P" (CharAt var10 928)))
(assert (= "M" (CharAt var5 398)))
(assert (= "I" (CharAt var26 301)))
(assert (= "S" (CharAt var6 725)))
(assert (= "/" (CharAt var33 358)))
(assert (= "S" (CharAt var47 971)))
(assert (= "," (CharAt var35 37)))
(assert (= "\\" (CharAt var3 205)))
(assert (= "V" (CharAt var42 794)))
(assert (= "b" (CharAt var51 707)))
(assert (= "X" (CharAt var33 926)))
(assert (= "y" (CharAt var34 421)))
(assert (= "f" (CharAt var14 232)))
(assert (= "W" (CharAt var49 136)))
(assert (= "Z" (CharAt var47 344)))
(assert (= "'" (CharAt var20 101)))
(assert (= "M" (CharAt var40 504)))
(assert (= "i" (CharAt var25 629)))
(assert (= "$" (CharAt var24 161)))
(assert (= "I" (CharAt var51 792)))
(assert (= "f" (CharAt var46 186)))
(assert (= "a" (CharAt var20 112)))
(assert (= "#" (CharAt var43 253)))
(assert (= ";" (CharAt var48 270)))
(assert (= "<" (CharAt var24 459)))
(assert (= ")" (CharAt var38 405)))
(assert (= "t" (CharAt var57 397)))
(assert (= "B" (CharAt var49 883)))
(assert (= "@" (CharAt var6 935)))
(assert (= "." (CharAt var46 592)))
(assert (= "H" (CharAt var50 235)))
(assert (= "u" (CharAt var55 229)))
(assert (= "D" (CharAt var44 982)))
(assert (= "u" (CharAt var9 166)))
(assert (= "k" (CharAt var60 273)))
(assert (= "G" (CharAt var44 428)))
(assert (= "h" (CharAt var57 3)))
(assert (= "y" (CharAt var9 924)))
(assert (= "M" (CharAt var9 456)))
(assert (= "#" (CharAt var22 820)))
(assert (= "9" (CharAt var42 707)))
(assert (= "Q" (CharAt var16 670)))
(assert (= "C" (CharAt var49 221)))
(assert (= "{" (CharAt var45 452)))
(assert (= "*" (CharAt var6 242)))
(assert (= "\"" (CharAt var45 796)))
(assert (= "e" (CharAt var49 402)))
(assert (= "p" (CharAt var47 179)))
(assert (= "-" (CharAt var46 468)))
(assert (= "k" (CharAt var42 641)))
(assert (= "G" (CharAt var19 329)))
(assert (= "E" (CharAt var7 613)))
(assert (= "(" (CharAt var0 129)))
(assert (= "Z" (CharAt var26 655)))
(assert (= "M" (CharAt var38 631)))
(assert (= "~" (CharAt var18 260)))
(assert (= "A" (CharAt var23 497)))
(assert (= "'" (CharAt var3 399)))
(assert (= "S" (CharAt var44 768)))
(assert (= "7" (CharAt var57 796)))
(assert (= "L" (CharAt var9 338)))
(assert (= "m" (CharAt var10 231)))
(assert (= "c" (CharAt var36 395)))
(assert (= "p" (CharAt var16 894)))
(assert (= "A" (CharAt var56 995)))
(assert (= "T" (CharAt var49 706)))
(assert (= "g" (CharAt var31 335)))
(assert (= "z" (CharAt var4 318)))
(assert (= "|" (CharAt var60 70)))
(assert (= "}" (CharAt var20 479)))
(assert (= "s" (CharAt var19 262)))
(assert (= "L" (CharAt var46 423)))
(assert (= "A" (CharAt var28 866)))
(assert (= "_" (CharAt var56 758)))
(assert (= "o" (CharAt var29 189)))
(assert (= "n" (CharAt var44 495)))
(assert (= "N" (CharAt var3 138)))
(assert (= "?" (CharAt var37 157)))
(assert (= "y" (CharAt var23 488)))
(assert (= "2" (CharAt var55 391)))
(assert (= "E" (CharAt var3 504)))
(assert (= "V" (CharAt var40 383)))
(assert (= "p" (CharAt var6 419)))
(assert (= "I" (CharAt var22 821)))
(assert (= "p" (CharAt var52 126)))
(assert (= "q" (CharAt var26 439)))
(assert (= "/" (CharAt var12 127)))
(assert (= "~" (CharAt var33 902)))
(assert (= "|" (CharAt var41 664)))
(assert (= "z" (CharAt var59 573)))
(assert (= "8" (CharAt var23 593)))
(assert (= "9" (CharAt var6 827)))
(assert (= "j" (CharAt var8 858)))
(assert (= "`" (CharAt var46 856)))
(assert (= "I" (CharAt var24 552)))
(assert (= "M" (CharAt var0 154)))
(assert (= "8" (CharAt var19 112)))
(assert (= "]" (CharAt var25 628)))
(assert (= "H" (CharAt var19 443)))
(assert (= "9" (CharAt var7 564)))
(assert (= "p" (CharAt var12 17)))
(assert (= "Z" (CharAt var22 124)))
(assert (= "^" (CharAt var36 120)))
(assert (= ":" (CharAt var29 438)))
(assert (= "<" (CharAt var37 258)))
(assert (= "M" (CharAt var20 565)))
(assert (= "8" (CharAt var40 367)))
(assert (= "<" (CharAt var0 544)))
(assert (= "r" (CharAt var18 7)))
(assert (= ":" (CharAt var27 303)))
(assert (= "j" (CharAt var35 713)))
(assert (= "K" (CharAt var39 111)))
(assert (= "^" (CharAt var21 632)))
(assert (= "@" (CharAt var35 390)))
(assert (= "o" (CharAt var5 639)))
(assert (= "A" (CharAt var45 264)))
(assert (= "J" (CharAt var6 37)))
(assert (= "m" (CharAt var2 147)))
(assert (= "\"" (CharAt var53 74)))
(assert (= "L" (CharAt var42 247)))
(assert (= "A" (CharAt var54 637)))
(assert (= "1" (CharAt var50 612)))
(assert (= "i" (CharAt var51 284)))
(assert (= "n" (CharAt var14 190)))
(assert (= "R" (CharAt var43 340)))
(assert (= "+" (CharAt var24 756)))
(assert (= "D" (CharAt var47 353)))
(assert (= "'" (CharAt var10 413)))
(assert (= "O" (CharAt var36 650)))
(assert (= "w" (CharAt var60 696)))
(assert (= "U" (CharAt var3 408)))
(assert (= "L" (CharAt var22 637)))
(assert (= "+" (CharAt var49 754)))
(assert (= "2" (CharAt var0 476)))
(assert (= "@" (CharAt var10 622)))
(assert (= "_" (CharAt var34 701)))
(assert (= "<" (CharAt var18 669)))
(assert (= ">" (CharAt var18 256)))
(assert (= "~" (CharAt var12 426)))
(assert (= "k" (CharAt var53 426)))
(assert (= "[" (CharAt var22 213)))
(assert (= "p" (CharAt var52 996)))
(assert (= "K" (CharAt var56 978)))
(assert (= "&" (CharAt var9 546)))
(assert (= "C" (CharAt var59 104)))
(assert (= "3" (CharAt var60 450)))
(assert (= "[" (CharAt var6 439)))
(assert (= "W" (CharAt var42 500)))
(assert (= "\"" (CharAt var56 544)))
(assert (= "r" (CharAt var20 543)))
(assert (= "U" (CharAt var47 558)))
(assert (= "?" (CharAt var5 595)))
(assert (= "6" (CharAt var28 574)))
(assert (= "p" (CharAt var41 443)))
(assert (= "M" (CharAt var36 379)))
(assert (= "D" (CharAt var36 948)))
(assert (= "j" (CharAt var36 176)))
(assert (= "<" (CharAt var0 550)))
(assert (= "$" (CharAt var50 82)))
(assert (= "+" (CharAt var6 138)))
(assert (= "%" (CharAt var28 461)))
(assert (= "c" (CharAt var42 592)))
(assert (= "!" (CharAt var39 371)))
(assert (= "v" (CharAt var54 557)))
(assert (= "(" (CharAt var44 812)))
(assert (= "R" (CharAt var43 152)))
(assert (= "\\" (CharAt var46 307)))
(assert (= "A" (CharAt var1 232)))
(assert (= "9" (CharAt var21 43)))
(assert (= "*" (CharAt var57 981)))
(assert (= "7" (CharAt var47 792)))
(assert (= "'" (CharAt var26 492)))
(assert (= "`" (CharAt var20 501)))
(assert (= "`" (CharAt var0 48)))
(assert (= "2" (CharAt var8 833)))
(assert (= "'" (CharAt var59 895)))
(assert (= "+" (CharAt var28 49)))
(assert (= "\\" (CharAt var35 282)))
(assert (= "r" (CharAt var40 329)))
(assert (= "a" (CharAt var43 78)))
(assert (= "J" (CharAt var39 96)))
(assert (= ">" (CharAt var15 37)))
(assert (= "*" (CharAt var35 434)))
(assert (= "B" (CharAt var47 756)))
(assert (= "I" (CharAt var54 903)))
(assert (= "{" (CharAt var27 620)))
(assert (= "v" (CharAt var9 171)))
(assert (= "n" (CharAt var17 923)))
(assert (= "T" (CharAt var20 409)))
(assert (= "&" (CharAt var36 139)))
(assert (= "'" (CharAt var40 805)))
(assert (= ")" (CharAt var46 226)))
(assert (= "k" (CharAt var40 489)))
(assert (= "]" (CharAt var9 709)))
(assert (= ">" (CharAt var56 896)))
(assert (= "7" (CharAt var36 172)))
(assert (= "N" (CharAt var36 98)))
(assert (= "&" (CharAt var14 928)))
(assert (= "*" (CharAt var31 943)))
(assert (= "4" (CharAt var47 68)))
(assert (= "o" (CharAt var9 731)))
(assert (= "u" (CharAt var42 933)))
(assert (= "I" (CharAt var56 235)))
(assert (= "7" (CharAt var32 723)))
(assert (= "Y" (CharAt var39 48)))
(assert (= "~" (CharAt var20 816)))
(assert (= "4" (CharAt var38 538)))
(assert (= "," (CharAt var57 23)))
(assert (= "]" (CharAt var19 119)))
(assert (= "x" (CharAt var18 743)))
(assert (= "a" (CharAt var3 663)))
(assert (= ":" (CharAt var51 677)))
(assert (= "F" (CharAt var60 664)))
(assert (= "C" (CharAt var29 411)))
(assert (= "{" (CharAt var37 411)))
(assert (= "q" (CharAt var22 347)))
(assert (= "S" (CharAt var49 546)))
(assert (= ";" (CharAt var60 253)))
(assert (= "p" (CharAt var14 206)))
(assert (= "?" (CharAt var46 196)))
(assert (= "'" (CharAt var27 748)))
(assert (= "G" (CharAt var47 10)))
(assert (= "y" (CharAt var27 775)))
(assert (= "t" (CharAt var23 586)))
(assert (= "$" (CharAt var48 601)))
(assert (= "V" (CharAt var55 422)))
(assert (= "u" (CharAt var37 185)))
(assert (= "=" (CharAt var37 681)))
(assert (= "G" (CharAt var48 948)))
(assert (= "!" (CharAt var2 402)))
(assert (= "o" (CharAt var51 8)))
(assert (= "?" (CharAt var53 512)))
(assert (= "q" (CharAt var57 779)))
(assert (= ":" (CharAt var15 642)))
(assert (= "0" (CharAt var45 451)))
(assert (= "b" (CharAt var28 553)))
(assert (= "%" (CharAt var19 858)))
(assert (= "$" (CharAt var42 756)))
(assert (= "Z" (CharAt var38 480)))
(assert (= "5" (CharAt var36 209)))
(assert (= "1" (CharAt var56 574)))
(assert (= "3" (CharAt var51 396)))
(assert (= "R" (CharAt var54 812)))
(assert (= "S" (CharAt var1 58)))
(assert (= "n" (CharAt var23 902)))
(assert (= "=" (CharAt var4 310)))
(assert (= "<" (CharAt var41 93)))
(assert (= "w" (CharAt var54 139)))
(assert (= "0" (CharAt var55 458)))
(assert (= "F" (CharAt var15 384)))
(assert (= "*" (CharAt var13 92)))
(assert (= "n" (CharAt var43 769)))
(assert (= "j" (CharAt var60 539)))
(assert (= "k" (CharAt var46 749)))
(assert (= "l" (CharAt var46 892)))
(assert (= "\"" (CharAt var37 311)))
(assert (= "/" (CharAt var14 519)))
(assert (= "t" (CharAt var26 468)))
(assert (= "H" (CharAt var37 806)))
(assert (= "P" (CharAt var35 921)))
(assert (= "H" (CharAt var44 546)))
(assert (= "b" (CharAt var43 344)))
(assert (= "N" (CharAt var19 645)))
(assert (= ")" (CharAt var28 411)))
(assert (= "k" (CharAt var40 674)))
(assert (= "v" (CharAt var32 737)))
(assert (= "s" (CharAt var1 398)))
(assert (= "&" (CharAt var44 786)))
(assert (= "W" (CharAt var5 792)))
(assert (= "m" (CharAt var13 706)))
(assert (= "8" (CharAt var3 746)))
(assert (= "," (CharAt var12 545)))
(assert (= "x" (CharAt var15 811)))
(assert (= "u" (CharAt var53 724)))
(assert (= "x" (CharAt var24 934)))
(assert (= "6" (CharAt var60 163)))
(assert (= "o" (CharAt var28 413)))
(assert (= "A" (CharAt var51 77)))
(assert (= "j" (CharAt var20 85)))
(assert (= "a" (CharAt var53 936)))
(assert (= "i" (CharAt var23 101)))
(assert (= "L" (CharAt var43 99)))
(assert (= "4" (CharAt var19 242)))
(assert (= "c" (CharAt var37 943)))
(assert (= "Y" (CharAt var51 45)))
(assert (= "3" (CharAt var48 965)))
(assert (= "O" (CharAt var32 733)))
(assert (= "$" (CharAt var54 315)))
(assert (= "D" (CharAt var22 822)))
(assert (= "u" (CharAt var54 963)))
(assert (= "L" (CharAt var9 216)))
(assert (= "3" (CharAt var40 470)))
(assert (= "C" (CharAt var49 888)))
(assert (= "1" (CharAt var54 810)))
(assert (= "f" (CharAt var44 580)))
(assert (= "t" (CharAt var22 903)))
(assert (= "I" (CharAt var6 31)))
(assert (= "I" (CharAt var2 62)))
(assert (= ":" (CharAt var44 689)))
(assert (= "j" (CharAt var12 778)))
(assert (= "{" (CharAt var34 96)))
(assert (= "}" (CharAt var46 337)))
(assert (= "t" (CharAt var55 88)))
(assert (= "2" (CharAt var18 770)))
(assert (= "f" (CharAt var45 918)))
(assert (= "H" (CharAt var25 384)))
(assert (= "[" (CharAt var43 37)))
(assert (= "V" (CharAt var16 236)))
(assert (= "v" (CharAt var28 81)))
(assert (= "-" (CharAt var4 113)))
(assert (= "Z" (CharAt var1 552)))
(assert (= "4" (CharAt var24 899)))
(assert (= "q" (CharAt var12 29)))
(assert (= "\"" (CharAt var32 983)))
(assert (= "^" (CharAt var43 307)))
(assert (= "u" (CharAt var33 424)))
(assert (= "m" (CharAt var10 84)))
(assert (= "o" (CharAt var31 179)))
(assert (= "z" (CharAt var24 636)))
(assert (= "X" (CharAt var21 636)))
(assert (= "'" (CharAt var42 842)))
(assert (= "3" (CharAt var51 668)))
(assert (= "k" (CharAt var55 324)))
(assert (= "`" (CharAt var60 969)))
(assert (= "S" (CharAt var28 470)))
(assert (= "9" (CharAt var10 206)))
(assert (= "T" (CharAt var4 22)))
(assert (= "u" (CharAt var12 902)))
(assert (= "@" (CharAt var9 979)))
(assert (= ">" (CharAt var38 100)))
(assert (= "p" (CharAt var5 149)))
(assert (= "3" (CharAt var6 235)))
(assert (= "&" (CharAt var58 355)))
(assert (= "z" (CharAt var36 976)))
(assert (= "%" (CharAt var8 423)))
(assert (= "0" (CharAt var60 359)))
(assert (= "'" (CharAt var26 198)))
(assert (= "&" (CharAt var39 966)))
(assert (= "^" (CharAt var30 13)))
(assert (= "N" (CharAt var6 140)))
(assert (= "z" (CharAt var24 62)))
(assert (= "%" (CharAt var0 181)))
(assert (= ";" (CharAt var43 196)))
(assert (= "+" (CharAt var7 908)))
(assert (= "P" (CharAt var40 357)))
(assert (= "y" (CharAt var43 999)))
(assert (= ">" (CharAt var10 153)))
(assert (= "L" (CharAt var22 407)))
(assert (= "z" (CharAt var41 22)))
(assert (= "o" (CharAt var24 862)))
(assert (= "*" (CharAt var24 404)))
(assert (= "q" (CharAt var8 852)))
(assert (= "X" (CharAt var24 751)))
(assert (= "U" (CharAt var59 595)))
(assert (= "?" (CharAt var2 655)))
(assert (= "/" (CharAt var31 270)))
(assert (= "M" (CharAt var50 352)))
(assert (= "-" (CharAt var17 627)))
(assert (= "t" (CharAt var41 66)))
(assert (= "." (CharAt var15 855)))
(assert (= "7" (CharAt var37 676)))
(assert (= "W" (CharAt var42 387)))
(assert (= "s" (CharAt var13 716)))
(assert (= "l" (CharAt var17 633)))
(assert (= "/" (CharAt var32 394)))
(assert (= "J" (CharAt var2 13)))
(assert (= "k" (CharAt var0 645)))
(assert (= "v" (CharAt var60 413)))
(assert (= "G" (CharAt var10 379)))
(assert (= ":" (CharAt var2 697)))
(assert (= "c" (CharAt var45 223)))
(assert (= "a" (CharAt var48 951)))
(assert (= "b" (CharAt var36 53)))
(assert (= "a" (CharAt var8 945)))
(assert (= "-" (CharAt var57 221)))
(assert (= "C" (CharAt var22 692)))
(assert (= "!" (CharAt var16 366)))
(assert (= "F" (CharAt var14 724)))
(assert (= ")" (CharAt var4 803)))
(assert (= "C" (CharAt var3 196)))
(assert (= "g" (CharAt var31 690)))
(assert (= "x" (CharAt var15 306)))
(assert (= "[" (CharAt var52 942)))
(assert (= "O" (CharAt var24 571)))
(assert (= "&" (CharAt var43 897)))
(assert (= "}" (CharAt var13 787)))
(assert (= "w" (CharAt var27 499)))
(assert (= "d" (CharAt var1 560)))
(assert (= "m" (CharAt var55 167)))
(assert (= "L" (CharAt var19 5)))
(assert (= "W" (CharAt var4 453)))
(assert (= "h" (CharAt var1 267)))
(assert (= "o" (CharAt var37 950)))
(assert (= "i" (CharAt var26 947)))
(assert (= "v" (CharAt var54 428)))
(assert (= "S" (CharAt var35 319)))
(assert (= "w" (CharAt var52 510)))
(assert (= "F" (CharAt var10 191)))
(assert (= "^" (CharAt var49 183)))
(assert (= "d" (CharAt var10 459)))
(assert (= "n" (CharAt var8 987)))
(assert (= "m" (CharAt var52 177)))
(assert (= "T" (CharAt var53 772)))
(assert (= ";" (CharAt var52 314)))
(assert (= "S" (CharAt var1 335)))
(assert (= "~" (CharAt var31 366)))
(assert (= "@" (CharAt var0 85)))
(assert (= "k" (CharAt var2 913)))
(assert (= "\\" (CharAt var29 109)))
(assert (= "e" (CharAt var21 556)))
(assert (= "N" (CharAt var16 219)))
(assert (= "f" (CharAt var20 862)))
(assert (= "l" (CharAt var13 840)))
(assert (= "," (CharAt var26 24)))
(assert (= "@" (CharAt var12 994)))
(assert (= "&" (CharAt var11 603)))
(assert (= "\\" (CharAt var8 149)))
(assert (= "1" (CharAt var26 854)))
(assert (= "\"" (CharAt var6 430)))
(assert (= "(" (CharAt var60 45)))
(assert (= "~" (CharAt var44 830)))
(assert (= "W" (CharAt var34 965)))
(assert (= "q" (CharAt var11 455)))
(assert (= "6" (CharAt var29 477)))
(assert (= "m" (CharAt var36 155)))
(assert (= "W" (CharAt var7 981)))
(assert (= "y" (CharAt var29 723)))
(assert (= "w" (CharAt var12 630)))
(assert (= "v" (CharAt var12 381)))
(assert (= "F" (CharAt var53 872)))
(assert (= "3" (CharAt var33 651)))
(assert (= "^" (CharAt var52 376)))
(assert (= "h" (CharAt var33 302)))
(assert (= "m" (CharAt var24 930)))
(assert (= "D" (CharAt var33 506)))
(assert (= "n" (CharAt var10 185)))
(assert (= "s" (CharAt var11 236)))
(assert (= "j" (CharAt var14 201)))
(assert (= "%" (CharAt var60 581)))
(assert (= ":" (CharAt var52 615)))
(assert (= "p" (CharAt var38 613)))
(assert (= "9" (CharAt var2 278)))
(assert (= "H" (CharAt var15 380)))
(assert (= "W" (CharAt var27 808)))
(assert (= "R" (CharAt var47 400)))
(assert (= "4" (CharAt var31 310)))
(assert (= "?" (CharAt var30 382)))
(assert (= "0" (CharAt var28 184)))
(assert (= "{" (CharAt var19 790)))
(assert (= "k" (CharAt var25 553)))
(assert (= "k" (CharAt var19 828)))
(assert (= "$" (CharAt var20 129)))
(assert (= "a" (CharAt var39 332)))
(assert (= ":" (CharAt var10 608)))
(assert (= "L" (CharAt var0 284)))
(assert (= "-" (CharAt var35 622)))
(assert (= "s" (CharAt var45 996)))
(assert (= "}" (CharAt var36 101)))
(assert (= "t" (CharAt var38 779)))
(assert (= "+" (CharAt var60 249)))
(assert (= "R" (CharAt var3 362)))
(assert (= "," (CharAt var14 303)))
(assert (= "|" (CharAt var28 842)))
(assert (= "a" (CharAt var42 317)))
(assert (= "n" (CharAt var7 664)))
(assert (= "P" (CharAt var44 70)))
(assert (= "5" (CharAt var58 850)))
(assert (= "r" (CharAt var48 375)))
(assert (= "9" (CharAt var55 275)))
(assert (= "w" (CharAt var10 324)))
(assert (= "'" (CharAt var26 897)))
(assert (= "/" (CharAt var10 435)))
(assert (= "(" (CharAt var27 641)))
(assert (= "a" (CharAt var35 563)))
(assert (= "d" (CharAt var25 175)))
(assert (= "U" (CharAt var6 275)))
(assert (= "." (CharAt var23 24)))
(assert (= "D" (CharAt var48 280)))
(assert (= "x" (CharAt var16 402)))
(assert (= "B" (CharAt var57 128)))
(assert (= "N" (CharAt var54 856)))
(assert (= "C" (CharAt var14 399)))
(assert (= "e" (CharAt var16 239)))
(assert (= "U" (CharAt var48 288)))
(assert (= "Y" (CharAt var24 975)))
(assert (= "'" (CharAt var27 460)))
(assert (= "u" (CharAt var60 118)))
(assert (= "w" (CharAt var59 3)))
(assert (= "g" (CharAt var57 430)))
(assert (= "Z" (CharAt var54 467)))
(assert (= "n" (CharAt var56 494)))
(assert (= "m" (CharAt var50 988)))
(assert (= "$" (CharAt var13 846)))
(assert (= "m" (CharAt var26 903)))
(assert (= ")" (CharAt var17 215)))
(assert (= "T" (CharAt var23 318)))
(assert (= "_" (CharAt var4 112)))
(assert (= "+" (CharAt var40 463)))
(assert (= "#" (CharAt var56 797)))
(assert (= "%" (CharAt var58 170)))
(assert (= "V" (CharAt var41 446)))
(assert (= "b" (CharAt var37 333)))
(assert (= "5" (CharAt var29 167)))
(assert (= "T" (CharAt var34 377)))
(assert (= "j" (CharAt var38 539)))
(assert (= "M" (CharAt var24 683)))
(assert (= "V" (CharAt var16 414)))
(assert (= "f" (CharAt var44 528)))
(assert (= "l" (CharAt var43 938)))
(assert (= ">" (CharAt var56 280)))
(assert (= "I" (CharAt var12 793)))
(assert (= "E" (CharAt var17 571)))
(assert (= "~" (CharAt var13 303)))
(assert (= ":" (CharAt var46 36)))
(assert (= "2" (CharAt var29 62)))
(assert (= "3" (CharAt var18 610)))
(assert (= "b" (CharAt var43 972)))
(assert (= ">" (CharAt var53 977)))
(assert (= "S" (CharAt var9 184)))
(assert (= ";" (CharAt var17 151)))
(assert (= "Z" (CharAt var6 132)))
(assert (= ":" (CharAt var47 815)))
(assert (= "i" (CharAt var1 608)))
(assert (= "d" (CharAt var39 361)))
(assert (= "t" (CharAt var4 245)))
(assert (= ")" (CharAt var13 462)))
(assert (= "$" (CharAt var13 421)))
(assert (= "7" (CharAt var45 680)))
(assert (= "J" (CharAt var15 211)))
(assert (= "k" (CharAt var34 828)))
(assert (= "*" (CharAt var3 990)))
(assert (= "o" (CharAt var34 83)))
(assert (= "3" (CharAt var15 676)))
(assert (= "Z" (CharAt var59 194)))
(assert (= ":" (CharAt var15 865)))
(assert (= "E" (CharAt var57 394)))
(assert (= "R" (CharAt var30 541)))
(assert (= "%" (CharAt var39 747)))
(assert (= ":" (CharAt var31 888)))
(assert (= "e" (CharAt var25 733)))
(assert (= "N" (CharAt var15 940)))
(assert (= ">" (CharAt var48 146)))
(assert (= "*" (CharAt var6 220)))
(assert (= "i" (CharAt var23 458)))
(assert (= "t" (CharAt var34 803)))
(assert (= "h" (CharAt var12 487)))
(assert (= "N" (CharAt var3 935)))
(assert (= "x" (CharAt var38 122)))
(assert (= "u" (CharAt var49 131)))
(assert (= "E" (CharAt var2 867)))
(assert (= "-" (CharAt var46 390)))
(assert (= "A" (CharAt var11 168)))
(assert (= "m" (CharAt var18 397)))
(assert (= "g" (CharAt var30 111)))
(assert (= "^" (CharAt var59 996)))
(assert (= "x" (CharAt var53 692)))
(assert (= "W" (CharAt var2 879)))
(assert (= "b" (CharAt var25 772)))
(assert (= "\\" (CharAt var55 601)))
(assert (= "!" (CharAt var16 18)))
(assert (= "6" (CharAt var50 896)))
(assert (= "4" (CharAt var24 437)))
(assert (= "y" (CharAt var4 211)))
(assert (= "W" (CharAt var21 549)))
(assert (= "G" (CharAt var13 70)))
(assert (= "g" (CharAt var6 482)))
(assert (= "W" (CharAt var38 302)))
(assert (= "^" (CharAt var32 645)))
(assert (= "`" (CharAt var60 589)))
(assert (= "y" (CharAt var16 642)))
(assert (= "t" (CharAt var30 16)))
(assert (= "\"" (CharAt var27 472)))
(assert (= "x" (CharAt var32 452)))
(assert (= "Q" (CharAt var28 3)))
(check-sat)